31 88 7 82 6 94 
27 69 30 51 71 65 66 20 70 1 
53 
62 11 64 63 90 32 10 
28 76 33 81 9 35 34 68 
42 15 41 22 75 56 4 54 
99 5 84 17 60 89 
52 19 47 36 49 46 48 
40 73 74 26 
21 72 23 39 67 25 55 24 80 
95 92 98 44 38 14 43 100 37 
2 57 87 97 13 58 
59 61 86 16 85 91 93 96 
12 29 78 79 3 77 50 
83 45 8 18 
